
50
12705

727 683
93 92
560 618
866 842
744 835
506 516
643 632
270 370
559 529
25 108
713 683
569 601
187 282
479 379
649 737
375 444
961 960
921 972
845 839
92 92
102 76
298 289
321 362
647 705
866 827
549 563
644 640
658 574
2 35
482 527
227 214
327 417
83 9
636 656
874 911
33 69
675 581
6 24
417 352
201 160
941 861
769 729
866 897
228 218
804 719
608 700
581 511
952 917
564 625
377 283
